set VV := 0 1 2 3 4 5 6 7 8 9 10 11 12 13 14 15 16 17 18 19 20 21 ;
set VS := 0 1 2 3 4 5 6 7 8 9 10 11 12 13 14 15 16 17 18 19 20 21 22 23 24 25 26 27 28 29 30 31 32 33 34 35 36 37 38 39 40 41 42 43 44 45 46 47 ;
param cv := 
0 16
1 11
2 20
3 18
4 20
5 10
6 12
7 23
8 11
9 15
10 12
11 20
12 22
13 25
14 13
15 14
16 19
17 22
18 15
19 18
20 23
21 22
;
param cs := 
0 34
1 21
2 25
3 20
4 23
5 35
6 32
7 23
8 30
9 34
10 37
11 35
12 22
13 39
14 21
15 33
16 29
17 36
18 29
19 34
20 26
21 34
22 26
23 28
24 34
25 27
26 37
27 30
28 34
29 32
30 39
31 39
32 27
33 30
34 23
35 26
36 40
37 28
38 39
39 38
40 22
41 40
42 38
43 29
44 35
45 23
46 20
47 32
;
param bv:	 0 1 2 3 4 5 6 7 8 9 10 11 12 13 14 15 16 17 18 19 20 21 := 
		0 0 0 0 0 0 0 0 0 0 0 14 0 0 0 0 0 0 0 0 0 0 0 
		1 0 0 0 0 25 0 0 0 0 24 25 0 23 0 0 23 0 0 0 0 0 0 
		2 0 0 0 0 10 0 0 0 0 0 0 0 0 0 0 12 22 0 23 0 0 0 
		3 0 0 0 0 0 24 19 0 0 0 0 0 0 0 0 0 0 0 21 0 0 0 
		4 0 0 0 0 0 0 0 23 0 0 0 0 0 0 0 0 0 18 0 0 0 0 
		5 0 0 0 0 0 0 0 0 0 0 0 0 0 0 0 0 0 16 0 0 16 0 
		6 0 0 0 0 0 0 0 0 0 0 0 0 0 0 0 10 0 18 0 0 0 0 
		7 0 0 0 0 0 0 0 0 0 0 0 17 0 0 0 0 0 0 0 0 0 0 
		8 0 0 0 0 0 0 0 0 0 0 0 0 0 25 0 0 0 0 0 0 0 0 
		9 0 0 0 0 0 0 0 0 0 0 0 0 0 15 0 0 0 0 0 0 0 0 
		10 0 0 0 0 0 0 0 0 0 0 0 0 0 0 0 0 0 0 0 20 0 0 
		11 0 0 0 0 0 0 0 0 0 0 0 0 0 0 0 0 23 0 0 0 0 10 
		12 0 0 0 0 0 0 0 0 0 0 0 0 0 0 0 18 0 0 0 0 0 14 
		13 0 0 0 0 0 0 0 0 0 0 0 0 0 0 22 0 0 0 0 0 0 0 
		14 0 0 0 0 0 0 0 0 0 0 0 0 0 0 0 0 21 17 0 0 0 0 
		15 0 0 0 0 0 0 0 0 0 0 0 0 0 0 0 0 0 0 0 0 0 0 
		16 0 0 0 0 0 0 0 0 0 0 0 0 0 0 0 0 0 0 0 0 0 17 
		17 0 0 0 0 0 0 0 0 0 0 0 0 0 0 0 0 0 0 0 0 0 0 
		18 0 0 0 0 0 0 0 0 0 0 0 0 0 0 0 0 0 0 0 0 0 0 
		19 0 0 0 0 0 0 0 0 0 0 0 0 0 0 0 0 0 0 0 0 0 0 
		20 0 0 0 0 0 0 0 0 0 0 0 0 0 0 0 0 0 0 0 0 0 0 
		21 0 0 0 0 0 0 0 0 0 0 0 0 0 0 0 0 0 0 0 0 0 0 
;
param bs:	 0 1 2 3 4 5 6 7 8 9 10 11 12 13 14 15 16 17 18 19 20 21 22 23 24 25 26 27 28 29 30 31 32 33 34 35 36 37 38 39 40 41 42 43 44 45 46 47 := 
		0 0 0 30 0 0 0 0 0 0 0 0 0 0 0 23 0 0 28 39 0 0 0 35 40 0 0 40 0 0 0 0 34 0 33 0 29 0 0 0 0 0 0 0 0 0 0 0 0 
		1 0 0 20 0 0 0 39 0 0 25 32 0 0 0 25 0 0 0 0 0 0 0 0 0 0 0 0 0 0 0 40 40 0 0 0 0 0 0 0 0 0 0 0 0 0 0 0 0 
		2 30 20 0 0 35 0 0 0 0 20 0 0 0 23 30 40 0 0 0 0 0 0 36 0 0 0 0 0 0 0 24 0 0 0 0 0 30 0 0 0 0 0 26 0 0 0 25 0 
		3 0 0 0 0 0 0 23 0 0 35 0 0 0 0 0 39 0 0 0 0 0 0 0 0 0 0 0 0 0 30 37 0 0 0 0 0 0 35 0 0 0 0 37 0 0 0 0 0 
		4 0 0 35 0 0 37 0 0 0 0 0 0 0 23 0 0 0 38 0 0 0 0 0 0 0 0 0 0 0 0 0 0 0 0 0 0 0 0 0 0 0 0 0 0 0 0 0 0 
		5 0 0 0 0 37 0 0 0 0 0 0 0 0 0 0 0 0 0 0 0 0 0 0 0 0 0 0 0 0 0 25 0 0 0 0 0 0 0 0 0 32 0 0 0 0 0 23 0 
		6 0 39 0 23 0 0 0 0 23 0 0 0 0 25 0 0 0 0 33 0 0 0 0 0 0 0 0 0 0 40 0 0 0 0 0 30 0 0 0 0 0 0 0 0 0 33 0 0 
		7 0 0 0 0 0 0 0 0 0 29 0 0 0 0 0 0 0 0 0 0 0 0 0 0 0 0 0 22 0 0 0 0 0 0 0 0 0 0 0 0 0 0 0 0 0 0 0 0 
		8 0 0 0 0 0 0 23 0 0 0 31 0 0 0 0 34 0 0 0 0 0 0 0 36 0 28 0 0 0 0 0 0 0 0 0 28 22 0 0 0 0 40 0 0 0 0 0 0 
		9 0 25 20 35 0 0 0 29 0 0 0 0 0 31 0 0 0 0 0 0 0 0 0 33 0 0 0 0 34 0 0 0 0 0 0 0 0 0 0 0 0 0 0 0 0 0 0 0 
		10 0 32 0 0 0 0 0 0 31 0 0 0 39 0 0 30 0 0 39 0 0 0 0 0 0 0 0 0 0 0 38 0 0 0 0 0 0 0 35 0 0 40 0 0 0 0 0 0 
		11 0 0 0 0 0 0 0 0 0 0 0 0 0 0 0 0 0 0 0 0 0 38 23 0 0 0 0 0 0 0 0 0 0 24 0 0 0 0 25 0 0 0 0 0 0 0 32 0 
		12 0 0 0 0 0 0 0 0 0 0 39 0 0 0 0 0 0 0 0 0 0 0 0 0 0 0 0 0 0 0 0 0 0 38 0 0 0 28 0 0 0 0 0 24 0 37 0 0 
		13 0 0 23 0 23 0 25 0 0 31 0 0 0 0 0 0 0 0 0 0 0 0 0 0 0 0 0 0 0 0 0 0 0 0 0 0 35 0 0 0 22 0 38 0 0 0 0 38 
		14 23 25 30 0 0 0 0 0 0 0 0 0 0 0 0 0 0 0 0 0 39 0 0 0 0 0 0 0 0 0 0 0 0 0 0 0 0 0 0 0 0 0 0 0 0 0 40 0 
		15 0 0 40 39 0 0 0 0 34 0 30 0 0 0 0 0 0 20 24 0 0 0 0 0 0 20 0 0 30 0 0 0 0 0 0 0 0 24 0 39 0 0 0 0 0 0 0 0 
		16 0 0 0 0 0 0 0 0 0 0 0 0 0 0 0 0 0 0 0 0 0 0 0 0 30 0 0 0 0 0 0 0 20 0 0 0 0 0 0 0 0 0 0 0 0 0 0 0 
		17 28 0 0 0 38 0 0 0 0 0 0 0 0 0 0 20 0 0 0 0 0 25 0 28 0 0 34 0 0 0 0 0 0 34 0 0 0 0 0 0 0 0 0 0 0 0 0 0 
		18 39 0 0 0 0 0 33 0 0 0 39 0 0 0 0 24 0 0 0 0 0 0 0 0 0 0 0 37 0 0 0 0 0 0 0 0 0 0 0 20 0 0 0 0 0 0 0 0 
		19 0 0 0 0 0 0 0 0 0 0 0 0 0 0 0 0 0 0 0 0 0 0 0 40 0 0 0 0 0 0 0 0 25 0 0 0 0 0 0 0 0 0 0 26 0 0 0 0 
		20 0 0 0 0 0 0 0 0 0 0 0 0 0 0 39 0 0 0 0 0 0 0 0 0 0 0 0 0 0 0 0 0 0 20 0 0 0 23 0 0 0 0 0 0 0 0 0 0 
		21 0 0 0 0 0 0 0 0 0 0 0 38 0 0 0 0 0 25 0 0 0 0 0 0 0 0 0 0 0 0 24 0 0 0 0 0 0 0 0 0 0 0 0 0 0 0 0 0 
		22 35 0 36 0 0 0 0 0 0 0 0 23 0 0 0 0 0 0 0 0 0 0 0 0 0 0 35 0 22 0 0 0 0 0 0 0 37 0 0 0 24 0 0 0 0 0 0 20 
		23 40 0 0 0 0 0 0 0 36 33 0 0 0 0 0 0 0 28 0 40 0 0 0 0 0 0 0 0 0 0 0 0 0 0 0 0 23 0 0 0 0 0 0 24 0 0 0 0 
		24 0 0 0 0 0 0 0 0 0 0 0 0 0 0 0 0 30 0 0 0 0 0 0 0 0 0 0 0 0 0 0 0 0 0 0 0 0 0 0 21 0 37 0 0 0 0 0 0 
		25 0 0 0 0 0 0 0 0 28 0 0 0 0 0 0 20 0 0 0 0 0 0 0 0 0 0 0 0 0 0 0 0 0 0 0 0 0 0 0 0 0 24 0 0 0 0 0 0 
		26 40 0 0 0 0 0 0 0 0 0 0 0 0 0 0 0 0 34 0 0 0 0 35 0 0 0 0 0 0 0 0 0 0 0 0 26 38 0 0 36 0 0 0 0 0 0 36 27 
		27 0 0 0 0 0 0 0 22 0 0 0 0 0 0 0 0 0 0 37 0 0 0 0 0 0 0 0 0 0 0 0 0 0 0 0 0 0 0 0 0 0 0 0 0 0 0 0 0 
		28 0 0 0 0 0 0 0 0 0 34 0 0 0 0 0 30 0 0 0 0 0 0 22 0 0 0 0 0 0 0 0 0 0 0 0 30 0 0 0 0 0 0 0 0 0 35 0 0 
		29 0 0 0 30 0 0 40 0 0 0 0 0 0 0 0 0 0 0 0 0 0 0 0 0 0 0 0 0 0 0 0 0 0 0 0 0 0 0 0 0 0 0 24 0 0 0 0 0 
		30 0 40 24 37 0 25 0 0 0 0 38 0 0 0 0 0 0 0 0 0 0 24 0 0 0 0 0 0 0 0 0 0 0 0 0 0 36 0 0 0 0 0 0 0 0 0 0 0 
		31 34 40 0 0 0 0 0 0 0 0 0 0 0 0 0 0 0 0 0 0 0 0 0 0 0 0 0 0 0 0 0 0 0 0 0 0 0 0 0 0 0 0 0 0 0 0 0 0 
		32 0 0 0 0 0 0 0 0 0 0 0 0 0 0 0 0 20 0 0 25 0 0 0 0 0 0 0 0 0 0 0 0 0 0 0 0 0 0 22 0 0 0 0 0 0 29 0 0 
		33 33 0 0 0 0 0 0 0 0 0 0 24 38 0 0 0 0 34 0 0 20 0 0 0 0 0 0 0 0 0 0 0 0 0 0 27 0 0 33 0 0 0 33 0 0 0 0 0 
		34 0 0 0 0 0 0 0 0 0 0 0 0 0 0 0 0 0 0 0 0 0 0 0 0 0 0 0 0 0 0 0 0 0 0 0 0 25 0 0 0 0 0 0 0 0 0 0 0 
		35 29 0 0 0 0 0 30 0 28 0 0 0 0 0 0 0 0 0 0 0 0 0 0 0 0 0 26 0 30 0 0 0 0 27 0 0 0 0 0 0 0 0 0 0 0 32 33 23 
		36 0 0 30 0 0 0 0 0 22 0 0 0 0 35 0 0 0 0 0 0 0 0 37 23 0 0 38 0 0 0 36 0 0 0 25 0 0 0 0 0 0 0 0 0 0 0 0 0 
		37 0 0 0 35 0 0 0 0 0 0 0 0 28 0 0 24 0 0 0 0 23 0 0 0 0 0 0 0 0 0 0 0 0 0 0 0 0 0 37 0 0 0 0 33 29 23 0 0 
		38 0 0 0 0 0 0 0 0 0 0 35 25 0 0 0 0 0 0 0 0 0 0 0 0 0 0 0 0 0 0 0 0 22 33 0 0 0 37 0 0 0 0 35 0 0 0 0 0 
		39 0 0 0 0 0 0 0 0 0 0 0 0 0 0 0 39 0 0 20 0 0 0 0 0 21 0 36 0 0 0 0 0 0 0 0 0 0 0 0 0 0 0 0 0 0 0 0 0 
		40 0 0 0 0 0 32 0 0 0 0 0 0 0 22 0 0 0 0 0 0 0 0 24 0 0 0 0 0 0 0 0 0 0 0 0 0 0 0 0 0 0 0 0 0 0 0 0 0 
		41 0 0 0 0 0 0 0 0 40 0 40 0 0 0 0 0 0 0 0 0 0 0 0 0 37 24 0 0 0 0 0 0 0 0 0 0 0 0 0 0 0 0 0 0 0 0 0 0 
		42 0 0 26 37 0 0 0 0 0 0 0 0 0 38 0 0 0 0 0 0 0 0 0 0 0 0 0 0 0 24 0 0 0 33 0 0 0 0 35 0 0 0 0 0 0 31 0 0 
		43 0 0 0 0 0 0 0 0 0 0 0 0 24 0 0 0 0 0 0 26 0 0 0 24 0 0 0 0 0 0 0 0 0 0 0 0 0 33 0 0 0 0 0 0 0 0 0 0 
		44 0 0 0 0 0 0 0 0 0 0 0 0 0 0 0 0 0 0 0 0 0 0 0 0 0 0 0 0 0 0 0 0 0 0 0 0 0 29 0 0 0 0 0 0 0 0 0 0 
		45 0 0 0 0 0 0 33 0 0 0 0 0 37 0 0 0 0 0 0 0 0 0 0 0 0 0 0 0 35 0 0 0 29 0 0 32 0 23 0 0 0 0 31 0 0 0 0 0 
		46 0 0 25 0 0 23 0 0 0 0 0 32 0 0 40 0 0 0 0 0 0 0 0 0 0 0 36 0 0 0 0 0 0 0 0 33 0 0 0 0 0 0 0 0 0 0 0 0 
		47 0 0 0 0 0 0 0 0 0 0 0 0 0 38 0 0 0 0 0 0 0 0 20 0 0 0 27 0 0 0 0 0 0 0 0 23 0 0 0 0 0 0 0 0 0 0 0 0 
;
